\* column_knapsack_problem *\
Minimize
knapsack: 25 col_11 + 25 col_13 + 25 col_15 + 26 col_18 + 24 col_19
 + 25 col_21 + 27 col_22 + 26 col_25 + 5 col_28 + 26 col_3 + 26 col_39
 + 26 col_43 + 2 col_44 + 4 col_45 + 26 col_47 + 27 col_6
Subject To
sensitivity: 7 col_11 + 7 col_13 + 7 col_15 + 6 col_18 + 8 col_19 + 7 col_21
 + 5 col_22 + 6 col_25 + 27 col_28 + 6 col_3 + 6 col_39 + 6 col_43 + 30 col_44
 + 28 col_45 + 6 col_47 + 5 col_6 >= 16.7
Bounds
 col_11 <= 1
 col_13 <= 1
 col_15 <= 1
 col_18 <= 1
 col_19 <= 1
 col_21 <= 1
 col_22 <= 1
 col_25 <= 1
 col_28 <= 1
 col_3 <= 1
 col_39 <= 1
 col_43 <= 1
 col_44 <= 1
 col_45 <= 1
 col_47 <= 1
 col_6 <= 1
End
